c ****************************************************************
c **     This is a Sat-2003 Competition *SHUFFLED* instance     **
c ****************************************************************
c N.B. This header has been added to the file after the competition
c Please do contact L. Simon for more informations (simon@lri.fr)
c 
c Bench submitted by: Edward A. Hirsch (Steklov Institute of Mathematics at St.Petersburg, Russia)
c              email: hirsch@pdmi.ras.ru
c 
c The original name of this formula was: 
c    random/hirsch/hgen8/hgen8-n120-01-S563767109.cnf
c Category : Random
c The name used during the competition was: 
c     random/set85/sat03-875.cnf
c The random seed used to shuffle this instance  was: 811532395
c 
c CPU time of solvers on this bench during the first stage 
c  (including Hors-Concours solvers):
c   +------------+--------+--------+
c   | Solver     | Time   | Answer |
c   +------------+--------+--------+
c   | satnik     |   0.60 |  UNSAT |
c   | kcnfs      |   0.61 |  UNSAT |
c   | forklift   |   0.71 |  UNSAT |
c   | berkmin561 |   0.77 |  UNSAT |
c   | berkmin62  |   0.82 |  UNSAT |
c   | satzoo1    |   0.83 |  UNSAT |
c   | oksolver   |   0.86 |  UNSAT |
c   | jerusat1b  |   1.30 |  UNSAT |
c   | zchaff     |   1.35 |  UNSAT |
c   | satzoo0    |   1.43 |  UNSAT |
c   | jerusat1a  |   1.49 |  UNSAT |
c   | satzilla   |   1.73 |  UNSAT |
c   | marchtt    |   1.84 |  UNSAT |
c   | marchsp    |   1.87 |  UNSAT |
c   | lsat       |   2.77 |  UNSAT |
c   | siege      |   4.49 |  UNSAT |
c   | funex      |   4.82 |  UNSAT |
c   | oepir      |   6.15 |  UNSAT |
c   | jquest2    |   6.24 |  UNSAT |
c   | bmsat      |   7.95 |  UNSAT |
c   | sato       |  11.28 |  UNSAT |
c   | jerusat1c  |  12.89 |  UNSAT |
c   | limmat     |  13.18 |  UNSAT |
c   | satzilla2  |  30.83 |  UNSAT |
c   | opensat    | 726.20 |  UNSAT |
c   | amvo       | 900.00 |   --   |
c   | compsat    | 900.00 |   --   |
c   | farseer    | 900.00 |   --   |
c   | marchxq    | 900.00 |   --   |
c   | qingting   | 900.00 |   --   |
c   | saturn     | 900.00 |   --   |
c   | tts        | 900.00 |   --   |
c   | unitwalk   | 900.00 |   --   |
c   | xqingting  | 900.00 |   --   |
c   +------------+--------+--------+
c
c Old header begins here:
c The random seed used to shuffle this instance was seed=811532395
p cnf 120 197
-18 120 0
70 -58 0
-117 61 0
-11 -89 0
-26 91 0
120 -44 0
41 -51 0
56 94 0
98 -87 0
1 -15 0
-14 12 0
28 12 0
66 -86 0
116 76 0
-89 -114 0
-99 -29 0
-78 66 0
-96 -51 0
-102 109 9 100 0
-115 107 0
60 67 0
-16 -37 0
108 -7 -93 -105 0
8 67 0
105 54 0
-15 -44 0
-31 22 0
8 -3 0
-83 104 -70 -47 0
70 73 0
-26 80 0
72 -50 -120 115 0
67 -3 0
30 -31 0
43 -109 0
62 83 0
-110 18 -95 88 0
-117 73 0
-77 90 0
-14 -72 0
-43 29 51 -10 0
81 39 0
42 -29 0
80 50 0
102 92 0
23 98 0
7 90 0
40 -66 -23 114 0
-91 46 -60 -61 0
96 -41 11 86 0
-36 33 0
-15 -18 0
53 80 0
-46 54 0
-5 17 49 78 0
-49 -16 0
-36 43 0
10 -78 0
-74 38 0
8 71 0
-86 10 0
-26 50 0
73 61 0
-18 1 0
-30 -62 -22 -1 0
39 105 0
-34 5 0
-72 28 0
22 -48 0
85 32 0
48 89 -54 35 0
-79 -88 0
10 66 0
-114 -11 0
-46 105 0
-71 -67 19 -90 0
27 -88 0
-100 116 0
54 81 0
13 -37 0
25 93 0
53 50 0
-9 -89 0
-82 -119 0
-86 -78 0
-100 -40 0
-35 93 0
25 -35 0
71 -3 0
-31 -48 0
53 -26 0
22 30 0
110 38 0
32 -96 0
53 91 0
99 15 3 34 0
116 -40 0
-108 27 0
50 91 0
23 -17 0
22 47 0
-69 -88 0
-19 -9 0
-74 110 0
85 -96 0
-103 23 0
-104 93 0
45 28 0
81 105 0
-36 -109 0
-49 -37 0
-63 25 0
-103 -87 0
70 -117 0
94 95 0
1 120 0
74 -38 44 24 0
-11 -19 0
27 -69 0
-58 -117 0
107 90 0
-28 -8 -98 77 0
76 -40 0
-17 -103 0
-12 36 -32 69 0
-39 -116 26 -42 0
56 -75 0
-75 94 0
-73 117 -85 -94 0
-35 -104 0
85 41 0
-3 60 0
33 43 0
-115 7 0
-115 90 0
7 -77 0
95 -75 0
14 79 37 -92 0
-72 45 0
-72 12 0
32 41 0
103 -45 -81 58 0
-51 85 0
-24 102 0
-87 23 0
-25 -56 -33 -107 0
31 -76 16 82 0
70 61 0
-17 -87 0
-79 -69 0
8 60 0
95 56 0
-58 61 0
-48 47 0
-96 41 0
-63 -35 0
30 -48 0
-88 -108 0
-18 -44 0
-16 13 0
-79 -108 0
33 -109 0
81 -46 0
-31 47 0
-79 27 0
75 119 -27 87 0
-80 -13 63 -53 0
92 -24 0
-46 39 0
-14 28 0
-77 -115 0
7 107 0
-69 -108 0
30 47 0
54 39 0
32 -51 0
42 -99 0
-49 13 0
-103 98 0
73 -58 0
-15 120 0
71 67 0
-9 -11 0
-77 107 0
71 60 0
-44 1 0
45 12 0
-100 76 0
-89 -19 0
93 -63 0
-114 -19 0
-114 -9 0
-17 98 0
45 -14 0
80 91 0
-104 25 0
-63 -104 0
